SDVRP instances/custom_instances/p01_17_splitx10_0.vrp
NAME:p01_17_splitx10_
BEST_KNOWN: 0
COMMENT: 0
DIMENSION: 239
CAPACITY: 1600
EDGE_WEIGHT_FORMAT: FUNCTION
EDGE_WEIGHT_TYPE: EXACT_2D
NODE_COORD_SECTION
1 0.00000 0.00000
2 21 39
3 21 39
4 21 39
5 21 39
6 21 39
7 21 39
8 -3 26
9 -3 26
10 -3 26
11 -3 26
12 -3 26
13 -3 26
14 20 -36
15 20 -36
16 20 -36
17 20 -36
18 -7 -9
19 -7 -9
20 -7 -9
21 -7 -9
22 11 -25
23 11 -25
24 11 -25
25 11 -25
26 11 -25
27 11 -25
28 5 8
29 5 8
30 5 8
31 5 8
32 5 8
33 5 8
34 5 8
35 5 8
36 -11 30
37 -11 30
38 -11 30
39 -11 30
40 -11 30
41 -24 -42
42 -24 -42
43 -24 -42
44 -24 -48
45 -24 -48
46 -24 -48
47 -24 -48
48 -24 -48
49 -24 -48
50 -24 -48
51 -13 17
52 -13 17
53 -13 17
54 -13 17
55 -13 17
56 -13 17
57 31 25
58 31 25
59 31 25
60 31 25
61 29 -6
62 29 -6
63 29 -6
64 29 -6
65 29 -6
66 -22 41
67 -22 41
68 -22 41
69 -22 41
70 -22 41
71 -22 41
72 -26 -46
73 -26 -46
74 -26 -46
75 -26 -46
76 -26 -46
77 43 -3
78 43 -3
79 43 -3
80 29 1
81 29 1
82 -25 -36
83 -25 -36
84 -25 -36
85 -42 16
86 -42 16
87 -42 16
88 -42 16
89 -42 16
90 -42 16
91 19 50
92 19 50
93 19 50
94 19 50
95 -48 15
96 -48 15
97 -48 15
98 -48 15
99 -48 15
100 -48 15
101 21 11
102 21 11
103 21 11
104 21 11
105 10 -43
106 10 -43
107 10 -43
108 10 -43
109 10 -43
110 10 -43
111 12 -39
112 12 -39
113 -47 14
114 -47 14
115 -47 14
116 -47 14
117 -47 14
118 -47 14
119 -14 18
120 -14 18
121 -14 18
122 -14 18
123 27 2
124 27 2
125 27 2
126 14 10
127 14 10
128 14 10
129 14 10
130 14 10
131 -44 29
132 -44 29
133 -44 29
134 -15 -17
135 -15 -17
136 -15 -17
137 -15 -17
138 -15 -17
139 48 -18
140 48 -18
141 48 -18
142 48 -18
143 4 0
144 4 0
145 -43 -5
146 -43 -5
147 -43 -5
148 -43 -5
149 22 32
150 22 32
151 22 32
152 22 32
153 22 32
154 22 32
155 22 32
156 -43 -41
157 -43 -41
158 -43 -41
159 -43 -41
160 -43 -41
161 7 -46
162 7 -46
163 7 -46
164 7 -46
165 7 -46
166 7 -46
167 7 -46
168 -48 22
169 -48 22
170 -48 22
171 -48 22
172 13 50
173 13 50
174 13 50
175 13 50
176 13 50
177 -26 6
178 -26 6
179 -26 6
180 -26 6
181 -26 6
182 -7 -15
183 -7 -15
184 -7 -15
185 -7 -15
186 -12 -36
187 -12 -36
188 -12 -36
189 -12 -36
190 -38 -41
191 -38 -41
192 -38 -41
193 -38 -41
194 -38 -41
195 0 -50
196 0 -50
197 0 -50
198 0 -50
199 0 -50
200 -36 34
201 -36 34
202 -36 34
203 -36 34
204 -47 33
205 -47 33
206 -47 33
207 -47 33
208 24 11
209 24 11
210 14 -36
211 14 -36
212 14 -36
213 14 -36
214 14 -36
215 14 -36
216 -49 39
217 -49 39
218 -49 39
219 -49 39
220 -49 39
221 -49 39
222 -11 4
223 -11 4
224 -11 4
225 -11 4
226 -11 4
227 -11 4
228 37 32
229 37 32
230 37 32
231 37 32
232 37 32
233 0 36
234 0 36
235 0 36
236 0 36
237 0 36
238 0 36
239 0 36
DEMAND_SECTION
1 0
2 320
3 16
4 16
5 16
6 16
7 6
8 320
9 80
10 16
11 16
12 16
13 12
14 320
15 160
16 16
17 4
18 320
19 16
20 16
21 8
22 320
23 80
24 16
25 16
26 16
27 12
28 320
29 160
30 80
31 16
32 16
33 16
34 16
35 6
36 320
37 160
38 16
39 16
40 8
41 320
42 16
43 4
44 320
45 80
46 16
47 16
48 16
49 16
50 6
51 320
52 80
53 16
54 16
55 16
56 12
57 320
58 320
59 16
60 4
61 320
62 80
63 16
64 16
65 8
66 320
67 160
68 16
69 16
70 16
71 12
72 320
73 160
74 16
75 16
76 8
77 320
78 320
79 160
80 320
81 320
82 320
83 16
84 4
85 320
86 320
87 16
88 16
89 16
90 2
91 320
92 320
93 80
94 10
95 160
96 80
97 16
98 16
99 16
100 2
101 320
102 16
103 16
104 8
105 160
106 16
107 16
108 16
109 16
110 6
111 320
112 10
113 160
114 80
115 16
116 16
117 16
118 12
119 320
120 80
121 16
122 14
123 320
124 320
125 10
126 320
127 320
128 80
129 16
130 4
131 320
132 320
133 10
134 320
135 320
136 16
137 16
138 8
139 320
140 320
141 16
142 14
143 160
144 80
145 320
146 160
147 16
148 14
149 320
150 80
151 16
152 16
153 16
154 16
155 6
156 320
157 320
158 80
159 16
160 4
161 320
162 320
163 80
164 16
165 16
166 16
167 12
168 320
169 320
170 16
171 14
172 160
173 80
174 16
175 16
176 8
177 320
178 160
179 16
180 16
181 8
182 160
183 16
184 16
185 8
186 320
187 80
188 16
189 14
190 160
191 16
192 16
193 16
194 2
195 160
196 16
197 16
198 16
199 12
200 320
201 160
202 16
203 4
204 320
205 80
206 16
207 4
208 320
209 80
210 160
211 16
212 16
213 16
214 16
215 6
216 320
217 160
218 16
219 16
220 16
221 12
222 320
223 320
224 80
225 16
226 16
227 8
228 320
229 16
230 16
231 16
232 2
233 320
234 160
235 16
236 16
237 16
238 16
239 6
DEPOT_SECTION
1
-1
EOF