SDVRP instances/custom_instances/p01_17_splitx10_0.sol
238 -8 11 7 9 12 10 234 232 238 236 233 235 237 27 34 32 31 28 -18 17 20 19 133 137 134 183 181 184 182 -25 23 21 26 22 24 211 214 209 212 213 210 13 15 14 16 142 143 -33 29 30 5 4 1 3 2 6 90 93 91 92 174 173 171 172 175 -39 38 37 36 35 70 67 69 68 66 65 202 201 200 199 54 52 -40 42 41 71 75 48 43 44 45 49 46 47 186 188 185 187 -50 53 51 55 119 121 118 120 222 226 225 221 224 -56 59 57 58 229 227 230 228 231 154 151 152 153 150 149 148 -60 79 80 123 122 -64 61 62 63 138 139 140 141 78 77 76 124 -81 83 82 74 73 72 193 191 192 190 189 156 155 157 158 159 135 136 -110 111 106 107 105 108 109 104 166 164 161 162 160 163 165 198 196 195 197 194 -128 129 127 126 125 103 101 100 102 207 208 -131 130 203 206 205 204 219 220 218 216 217 215 -132 170 168 169 167 97 99 94 96 98 95 113 117 114 116 115 112 177 179 178 223 -146 144 147 145 88 85 89 86 87 84 180 176 0 





OBJ=
1524.089
BEST_KNOWN=
0.000